(assert (forall ((pkt_0_4_6_0  Int  )(state_group_0_state_0_5_7_0  Int  )(state_group_0_state_1_6_8_0  Int  )) (let ((_n0 state_group_0_state_0_5_7_0 ))
(let ((_n1 2 ))
(let ((_n2 (ite (=  _n0  1)  _n1   _n0  ) ))
(let ((_n3 state_group_0_state_1_6_8_0 ))
(let ((_n4 false ))
(let ((_n5 (ite (=  _n0  1)  (ite  _n4  1 0)   _n3  ) ))
(let ((_n6 3 ))
(let ((_n7 (ite (=  _n5  999)  _n6   _n2  ) ))
(let ((_n8 (ite (=  _n2  2)  _n7   _n2  ) ))
(let ((_n9 (=   _n0   _n1 ) ))
(let ((_n10 (ite (=  _n0  2)  (ite  _n4  1 0)   _n0  ) ))
(let ((_n11 (<   _n10   _n1 ) ))
(let ((_n12 (ite (=  _n0  2)  _n4   _n11  ) ))
(let ((_n13 (not  _n12 ) ))
(let ((_n14 (or   _n13   _n9 ) ))
(let ((_n15 (ite  _n14   (ite  _n4  1 0)   _n0  ) ))
(let ((_n16 (=   _n15   (ite  _n4  1 0) ) ))
(let ((_n17 (ite  _n14   _n4   _n16  ) ))
(let ((_n18 (or   _n17   _n14 ) ))
(let ((_n19 (ite  _n18   (ite  _n4  1 0)   _n1  ) ))
(let ((_n20 (-  _n19 )))
(let ((_n21 (ite  _n18   (ite  _n4  1 0)   _n6  ) ))
(let ((_n22 (+   _n21   _n20 ) ))
(let ((_n23 (ite  _n18   (ite  _n4  1 0)   _n22  ) ))
(let ((_n24 (+   _n0   _n23 ) ))
(let ((_n25 (ite (=  (ite  _n17  1 0)  1)  _n0   _n24  ) ))
(let ((_n26 (ite (=  (ite  _n12  1 0)  1)  _n25   _n0  ) ))
(let ((_n27 999 ))
(let ((_n28 pkt_0_4_6_0 ))
(let ((_n29 (ite (=  _n0  2)  _n28   (ite  _n4  1 0)  ) ))
(let ((_n30 (ite (=  _n0  2)  _n3   (ite  _n4  1 0)  ) ))
(let ((_n31 (+   _n30   _n29 ) ))
(let ((_n32 (<   _n31   _n27 ) ))
(let ((_n33 (ite (=  _n0  2)  _n32   _n4  ) ))
(let ((_n34 (not  _n9 ) ))
(let ((_n35 (or   _n33   _n34 ) ))
(let ((_n36 (not  _n35 ) ))
(let ((_n37 (+   _n0   (ite  _n36  1 0) ) ))
(let ((_n38 (and   _n33   _n9 ) ))
(let ((_n39 (ite  _n38   _n1   (ite  _n4  1 0)  ) ))
(let ((_n40 (ite  _n38   (ite  _n4  1 0)   _n0  ) ))
(let ((_n41 (+   _n40   _n39 ) ))
(let ((_n42 (ite (=  (ite  _n33  1 0)  1)  _n41   _n37  ) ))
(let ((_n43 (ite (=  (ite  _n9  1 0)  1)  _n42   _n26  ) ))
(let ((_n44 (=   _n43   _n8 ) ))
(let ((_n46 true ))
(let ((_n47 (+   _n5   (ite  _n46  1 0) ) ))
(let ((_n48 (ite (=  _n2  2)  _n47   _n5  ) ))
(let ((_n49 (ite  _n18   _n3   (ite  _n4  1 0)  ) ))
(let ((_n50 (+   _n49   _n23 ) ))
(let ((_n51 (ite (=  (ite  _n17  1 0)  1)  _n3   _n50  ) ))
(let ((_n52 (ite (=  (ite  _n12  1 0)  1)  _n51   _n3  ) ))
(let ((_n53 (+   _n3   (ite  _n36  1 0) ) ))
(let ((_n54 (-  _n39 )))
(let ((_n55 (ite  _n38   _n6   (ite  _n4  1 0)  ) ))
(let ((_n56 (+   _n55   _n54 ) ))
(let ((_n57 (ite  _n38   _n56   (ite  _n4  1 0)  ) ))
(let ((_n58 (+   _n3   _n57 ) ))
(let ((_n59 (ite (=  (ite  _n33  1 0)  1)  _n58   _n53  ) ))
(let ((_n60 (ite (=  (ite  _n9  1 0)  1)  _n59   _n52  ) ))
(let ((_n61 (=   _n60   _n48 ) ))
(let ((_n63 (ite (=  _n28  0)  _n28   (ite  _n4  1 0)  ) ))
(let ((_n64 (ite (=  _n28  0)  _n63   _n28  ) ))
(let ((_n65 (=   _n64   _n28 ) ))
(implies  (and (and (>= state_group_0_state_1_6_8_0 0) (< state_group_0_state_1_6_8_0 1024 ))  (and (and (>= state_group_0_state_0_5_7_0 0) (< state_group_0_state_0_5_7_0 1024 ))  (and (>= pkt_0_4_6_0 0) (< pkt_0_4_6_0 1024 )) ) )   (and  _n44  _n61  _n65 )  )))))))))))))))))))))))))))))))))))))))))))))))))))))))))))))))))))
(check-sat)
(get-model)
(exit)